(declare-const delta_j Int)
(declare-const delta_i Int)
(assert (exists ((|i'?1| Int) (|j'?2| Int) (j?3 Int) (x?4 Int) (i?5 Int))
         (and (<= (- j?3) 0) (< (- x?4) 0) (<= (- i?5) 0)
                (= (+ (* -2 i?5) j?3) 0) (= (+ x?4 -100) 0)
                (< (+ i?5 (- x?4)) 0) (= (+ |i'?1| (- i?5) -1) 0)
                (= (+ |j'?2| (- j?3) -2) 0) (= delta_j (+ |j'?2| (- j?3)))
                (= delta_i (+ |i'?1| (- i?5))))))
(check-sat)
